p cnf 46 122
-2 12 17 0
2 -12 17 0
2 12 -17 0
-2 -12 -17 0
-17 8 18 0
17 -8 18 0
17 8 -18 0
-17 -8 -18 0
-3 6 19 0
3 -6 19 0
3 6 -19 0
-3 -6 -19 0
-14 4 20 0
14 -4 20 0
14 4 -20 0
-14 -4 -20 0
-5 20 21 0
5 -20 21 0
5 20 -21 0
-5 -20 -21 0
-21 15 22 0
21 -15 22 0
21 15 -22 0
-21 -15 -22 0
-10 13 23 0
10 -13 23 0
10 13 -23 0
-10 -13 -23 0
-18 11 24 0
18 -11 24 0
18 11 -24 0
-18 -11 -24 0
-1 7 25 0
1 -7 25 0
1 7 -25 0
-1 -7 -25 0
-9 16 26 0
9 -16 26 0
9 16 -26 0
-9 -16 -26 0
-22 25 27 0
22 -25 27 0
22 25 -27 0
-22 -25 -27 0
-27 24 28 0
27 -24 28 0
27 24 -28 0
-27 -24 -28 0
-19 28 29 0
19 -28 29 0
19 28 -29 0
-19 -28 -29 0
-26 23 30 0
26 -23 30 0
26 23 -30 0
-26 -23 -30 0
-29 30 31 0
29 -30 31 0
29 30 -31 0
-29 -30 -31 0
-11 15 32 0
11 -15 32 0
11 15 -32 0
-11 -15 -32 0
-2 12 33 0
2 -12 33 0
2 12 -33 0
-2 -12 -33 0
-16 14 34 0
16 -14 34 0
16 14 -34 0
-16 -14 -34 0
-32 3 35 0
32 -3 35 0
32 3 -35 0
-32 -3 -35 0
-34 4 36 0
34 -4 36 0
34 4 -36 0
-34 -4 -36 0
-36 7 37 0
36 -7 37 0
36 7 -37 0
-36 -7 -37 0
-8 1 38 0
8 -1 38 0
8 1 -38 0
-8 -1 -38 0
-10 5 39 0
10 -5 39 0
10 5 -39 0
-10 -5 -39 0
-37 39 40 0
37 -39 40 0
37 39 -40 0
-37 -39 -40 0
-38 40 41 0
38 -40 41 0
38 40 -41 0
-38 -40 -41 0
-9 33 42 0
9 -33 42 0
9 33 -42 0
-9 -33 -42 0
-6 41 43 0
6 -41 43 0
6 41 -43 0
-6 -41 -43 0
-42 13 44 0
42 -13 44 0
42 13 -44 0
-42 -13 -44 0
-35 44 45 0
35 -44 45 0
35 44 -45 0
-35 -44 -45 0
-43 45 46 0
43 -45 46 0
43 45 -46 0
-43 -45 -46 0
-31 -46 0
31 46 0
